# SCIP version 3.0.2.1

# Type of the graph: 'c' column hypergraph, 'r' row hypergraph, 'a' column-row hypergraph
# [type: char, range: {cra}, default: r]
detection/detectors/arrowheur/type = c
detection/detectors/arrowheur/enabled = TRUE

# flag to indicate whether detector <isomorph> is enabled
# [type: bool, range: {TRUE,FALSE}, default: TRUE]
detection/detectors/isomorph/enabled = FALSE
